Route #1: 28 32 65 23 15 5 37 54 39 61 31 17 62 42 36 46 51 4
Route #2: 58 49 34 13 2 14 25 11 45 22 53 9 60 57 20 19
Route #3: 30 21 43 33 3 59 41
Route #4: 63 12 24 8 29 56 38 26
Route #5: 52 35 27 47 48 7
Route #6: 18 40 44 50 16 10
Route #7: 64 55
Route #8: 1
Route #9: 6
cost 1778.708295354761
